(set-logic ALL)
(declare-const k Int)
(declare-fun %B () (_ BitVec k))
(declare-fun C1 () (_ BitVec k))
(declare-fun %A () (_ BitVec k))
(declare-fun C2 () (_ BitVec k))
(assert (and (= (bvxor C1 C2) (bvnot (_ bv0 k))) (not (= (bvor (bvor (bvor %A %B) C1) (bvand %B C2)) (bvor (bvand %A C1) %B)))))
(check-sat)